results/real/sos1/mar_18_382.in
Version identifier: 22.1.0.0 | 2022-03-09 | 1a383f8ce
CPXPARAM_Threads                                 1
CPXPARAM_MIP_Strategy_VariableSelect             3
CPXPARAM_TimeLimit                               599.99998752199997
1 of 1 MIP starts provided solutions.
MIP start 'm1' defined initial solution with objective 131.0000.
Tried aggregator 2 times.
MIP Presolve eliminated 44 rows and 383 columns.
MIP Presolve added 36 rows and 9 columns.
MIP Presolve modified 44 coefficients.
Aggregator did 9 substitutions.
Reduced MIP has 2670 rows, 4584 columns, and 115521 nonzeros.
Reduced MIP has 4584 binaries, 0 generals, 0 SOSs, and 0 indicators.
Presolve time = 0.15 sec. (223.00 ticks)
Probing time = 0.02 sec. (16.22 ticks)
Tried aggregator 1 time.
Detecting symmetries...
MIP Presolve modified 12 coefficients.
Reduced MIP has 2670 rows, 4584 columns, and 115665 nonzeros.
Reduced MIP has 4584 binaries, 0 generals, 0 SOSs, and 0 indicators.
Presolve time = 0.11 sec. (173.84 ticks)
Probing time = 0.02 sec. (16.23 ticks)
Clique table members: 1900.
MIP emphasis: balance optimality and feasibility.
MIP search method: dynamic search.
Parallel mode: none, using 1 thread.
Root relaxation solution time = 0.04 sec. (47.88 ticks)

        Nodes                                         Cuts/
   Node  Left     Objective  IInf  Best Integer    Best Bound    ItCnt     Gap

*     0+    0                          131.0000    73153.0000              --- 
      0     0      382.0000   103      131.0000      382.0000      668  191.60%
*     0+    0                          382.0000      382.0000             0.00%
      0     0        cutoff            382.0000      382.0000      668    0.00%
Elapsed time = 0.55 sec. (707.61 ticks, tree = 0.01 MB, solutions = 2)

Root node processing (before b&c):
  Real time             =    0.55 sec. (707.81 ticks)
Sequential b&c:
  Real time             =    0.00 sec. (0.00 ticks)
                          ------------
Total (root+branch&cut) =    0.55 sec. (707.81 ticks)
Primal:	382
Dual:	382
Status:	Optimal
Time:	0.58
Sequence:
	0
	7
	9
	6
	4
	9
	9
	4
	4
	1
	4
	1
	9
	6
	9
	4
	9
	4
	4
	9
	4
	4
	1
	4
	4
	9
	9
	9
	1
	9
	7
	9
	5
	4
	1
	4
	7
	9
	4
	5
	9
	1
	9
	9
	9
	4
	9
	6
	9
	9
	9
	9
	9
	9
	4
	1
	4
	1
	9
	1
	9
	1
	4
	9
	9
	4
	1
	9
	9
	9
	9
	4
	9
	6
	9
	1
	9
	9
	1
	9
	6
	9
	1
	9
	1
	4
	1
	9
	9
	1
	4
	5
	9
	5
	9
	7
	4
	9
	1
	0
	6
	9
	4
	4
	0
	5
	4
	1
	4
	1
	0
	6
	4
	1
	4
	4
	1
	4
	4
	9
	5
	9
	4
	4
	0
	6
	4
	1
	0
	1
	4
	4
	1
	4
	4
	0
	4
	5
	0
	1
	4
	0
	7
	4
	0
	6
	9
	4
	9
	6
	8
	1
	4
	4
	0
	4
	7
	9
	6
	9
	4
	1
	4
	9
	4
	7
	0
	1
	4
	6
	9
	1
	4
	4
	1
	4
	1
	4
	9
	8
	7
	9
	5
	9
	4
	4
	3
	4
	9
	4
	4
	9
	4
	6
	9
	7
	9
	1
	9
	5
	9
	5
	4
	1
	9
	4
	1
	4
	9
	6
	9
	1
	4
	0
	4
	6
	9
	5
	9
	5
	9
	6
	9
	9
	9
	6
	9
	1
	9
	0
	6
	9
	9
	10
	9
	0
	7
	9
	9
	4
	6
	0
	7
	9
	1
	9
	4
	9
	7
	9
	1
	0
	9
	1
	0
	3
	9
	4
	1
	4
	6
	9
	4
	4
	0
	4
	4
	11
	0
	1
	9
	4
	4
	1
	4
	1
	4
	1
	4
	4
	0
	1
	9
	1
	9
	0
	9
	6
	4
	9
	9
	6
	9
	5
	9
	6
	9
	9
	9
	6
	0
	9
	1
	4
	9
	1
	9
	10
	4
	1
	4
	9
	5
	9
	9
	9
	6
	9
	7
	9
	9
	1
	9
	9
	5
	4
	11
	4
	1
	9
	6
	9
	5
	9
	9
	7
	9
	5
	9
	9
	5
	9
	1
	4
	5
	9
	5
	9
	9
	5
	9
	5
	9
	5
	4
	9
	1
	4
	1
	9
	9
	7
	4
	9
	9
	4
	9
	4
	5
	9
	9
	7
	9
	4
	6
	0
	5
	9
	6
	0
	4
	3
