results/real/sos1/mar_18_382.out
Version identifier: 22.1.1.0 | 2022-11-28 | 9160aff4d
CPXPARAM_Threads                                 1
CPXPARAM_MIP_Strategy_VariableSelect             3
CPXPARAM_TimeLimit                               599.99999356000001
1 of 1 MIP starts provided solutions.
MIP start 'm1' defined initial solution with objective 131.0000.
Tried aggregator 1 time.
MIP Presolve eliminated 16 rows and 382 columns.
MIP Presolve modified 35 coefficients.
Reduced MIP has 2289 rows, 4584 columns, and 110165 nonzeros.
Reduced MIP has 4584 binaries, 0 generals, 0 SOSs, and 0 indicators.
Presolve time = 0.06 sec. (172.33 ticks)
Probing time = 0.01 sec. (16.22 ticks)
Tried aggregator 1 time.
Detecting symmetries...
MIP Presolve modified 10 coefficients.
Reduced MIP has 2289 rows, 4584 columns, and 110297 nonzeros.
Reduced MIP has 4584 binaries, 0 generals, 0 SOSs, and 0 indicators.
Presolve time = 0.06 sec. (165.22 ticks)
Probing time = 0.01 sec. (16.23 ticks)
Clique table members: 1519.
MIP emphasis: balance optimality and feasibility.
MIP search method: dynamic search.
Parallel mode: none, using 1 thread.
Root relaxation solution time = 0.02 sec. (35.42 ticks)

        Nodes                                         Cuts/
   Node  Left     Objective  IInf  Best Integer    Best Bound    ItCnt     Gap

*     0+    0                          131.0000    73153.0000              --- 
      0     0      382.0000    50      131.0000      382.0000      470  191.60%
*     0+    0                          382.0000      382.0000             0.00%
      0     0        cutoff            382.0000      382.0000      470    0.00%
Elapsed time = 0.25 sec. (587.49 ticks, tree = 0.01 MB, solutions = 2)

Root node processing (before b&c):
  Real time             =    0.25 sec. (587.69 ticks)
Sequential b&c:
  Real time             =    0.00 sec. (0.00 ticks)
                          ------------
Total (root+branch&cut) =    0.25 sec. (587.69 ticks)
Primal:	382
Dual:	382
Status:	Optimal
Time:	0.25
Sequence:
	1
	4
	9
	6
	5
	9
	4
	6
	9
	7
	9
	9
	6
	4
	9
	4
	6
	0
	1
	4
	6
	9
	4
	0
	6
	9
	1
	4
	9
	6
	4
	9
	4
	6
	9
	4
	9
	6
	9
	9
	9
	6
	4
	9
	9
	6
	9
	9
	9
	6
	9
	4
	1
	9
	1
	1
	0
	9
	9
	4
	9
	9
	4
	6
	9
	9
	9
	9
	6
	7
	9
	0
	9
	1
	9
	5
	11
	9
	9
	9
	9
	9
	3
	1
	9
	9
	9
	4
	9
	7
	5
	9
	9
	5
	9
	9
	1
	4
	1
	0
	4
	9
	4
	1
	4
	1
	4
	0
	4
	4
	9
	4
	4
	1
	1
	4
	1
	4
	4
	1
	8
	9
	4
	4
	1
	5
	4
	9
	0
	5
	3
	9
	4
	4
	1
	0
	1
	4
	1
	1
	4
	0
	1
	4
	0
	4
	4
	9
	4
	4
	10
	5
	0
	4
	4
	1
	4
	4
	9
	1
	4
	0
	4
	4
	1
	4
	4
	1
	4
	4
	9
	4
	4
	1
	1
	4
	4
	1
	1
	4
	9
	4
	4
	0
	4
	4
	9
	4
	9
	4
	4
	9
	9
	5
	7
	9
	6
	4
	9
	4
	4
	9
	9
	9
	4
	1
	4
	9
	7
	9
	9
	5
	1
	5
	9
	5
	5
	9
	5
	5
	9
	5
	5
	9
	5
	5
	9
	6
	0
	9
	9
	4
	9
	4
	9
	6
	9
	0
	4
	6
	9
	9
	9
	7
	5
	0
	9
	6
	5
	1
	8
	6
	1
	4
	9
	7
	0
	1
	9
	9
	6
	9
	9
	5
	7
	1
	9
	10
	0
	9
	9
	9
	6
	7
	1
	9
	1
	4
	1
	1
	4
	1
	1
	4
	1
	1
	0
	9
	5
	7
	9
	9
	6
	9
	1
	9
	6
	7
	0
	4
	4
	1
	9
	7
	9
	6
	9
	1
	4
	11
	9
	9
	9
	1
	6
	0
	4
	9
	9
	6
	1
	7
	9
	4
	9
	9
	4
	5
	9
	1
	0
	4
	9
	7
	4
	9
	0
	9
	9
	7
	9
	9
	9
	0
	4
	4
	9
	9
	4
	4
	1
	9
	6
	4
	9
	9
	9
	9
	4
	9
	0
	9
	1
	9
	4
	5
	9
	3
	9
	9
	1
	4
	9
	7
	9
	4
	4
	9
	5
	4
	1
	1
